; PUSH cw_1 PUSH cw_2 SLOAD SWAP1 POP => PUSH cw_2 SLOAD
(set-option :produce-proofs true)
; 
(set-info :status unknown)
(declare-fun storage_t ((_ BitVec 256) (_ BitVec 256) (_ BitVec 256) Int (_ BitVec 256)) (_ BitVec 256))
(declare-fun w_2 () (_ BitVec 256))
(declare-fun w_1 () (_ BitVec 256))
(declare-fun storage_s ((_ BitVec 256) (_ BitVec 256) (_ BitVec 256) Int (_ BitVec 256)) (_ BitVec 256))
(declare-fun exc_halt_t (Int) Bool)
(declare-fun exc_halt_s (Int) Bool)
(declare-fun sc_t (Int) (_ BitVec 6))
(declare-fun stack_t ((_ BitVec 256) (_ BitVec 256) (_ BitVec 256) Int (_ BitVec 6)) (_ BitVec 256))
(declare-fun stack_s ((_ BitVec 256) (_ BitVec 256) (_ BitVec 256) Int (_ BitVec 6)) (_ BitVec 256))
(declare-fun sc_s (Int) (_ BitVec 6))
(declare-fun used_gas_t ((_ BitVec 256) (_ BitVec 256) (_ BitVec 256) Int) Int)
(declare-fun used_gas_s ((_ BitVec 256) (_ BitVec 256) (_ BitVec 256) Int) Int)
(assert
 (exists ((x_SLOAD_0 (_ BitVec 256)) )(let (($x8058 (forall ((w (_ BitVec 256)) )(let ((?x9551 (storage_t x_SLOAD_0 w_1 w_2 2 w)))
 (let ((?x8115 (storage_s x_SLOAD_0 w_1 w_2 5 w)))
 (= ?x8115 ?x9551))))
 ))
 (let (($x9258 (exc_halt_t 2)))
 (let (($x1862 (exc_halt_s 5)))
 (let (($x6841 (= $x1862 $x9258)))
 (let (($x6676 (forall ((n (_ BitVec 6)) )(let ((?x6896 (stack_t x_SLOAD_0 w_1 w_2 2 n)))
 (let ((?x571 (stack_s x_SLOAD_0 w_1 w_2 5 n)))
 (let (($x9863 (= ?x571 ?x6896)))
 (or $x9863 (bvsle (sc_t 2) n))))))
 ))
 (let ((?x4896 (sc_t 2)))
 (let ((?x4319 (sc_s 5)))
 (let (($x4807 (= ?x4319 ?x4896)))
 (let ((?x9289 (used_gas_t x_SLOAD_0 w_1 w_2 0)))
 (let ((?x2875 (used_gas_s x_SLOAD_0 w_1 w_2 0)))
 (let (($x484 (= ?x2875 ?x9289)))
 (let (($x1528 (forall ((w (_ BitVec 256)) )(let ((?x256 (storage_t x_SLOAD_0 w_1 w_2 0 w)))
 (let ((?x47 (storage_s x_SLOAD_0 w_1 w_2 0 w)))
 (= ?x47 ?x256))))
 ))
 (let (($x56 (exc_halt_t 0)))
 (let (($x57 (exc_halt_s 0)))
 (let (($x58 (= $x57 $x56)))
 (let (($x4150 (forall ((n (_ BitVec 6)) )(let ((?x63 (sc_t 0)))
 (let (($x6655 (bvsle ?x63 n)))
 (let ((?x9634 (stack_t x_SLOAD_0 w_1 w_2 0 n)))
 (let ((?x8532 (stack_s x_SLOAD_0 w_1 w_2 0 n)))
 (let (($x1000 (= ?x8532 ?x9634)))
 (or $x1000 $x6655)))))))
 ))
 (let ((?x63 (sc_t 0)))
 (let ((?x72 (sc_s 0)))
 (let (($x73 (= ?x72 ?x63)))
 (let (($x11340 (= $x9258 (or (exc_halt_t 1) (not (bvsle (_ bv0 6) (bvadd (_ bv63 6) (sc_t 1))))))))
 (let (($x11025 (forall ((w (_ BitVec 256)) )(let ((?x8621 (storage_t x_SLOAD_0 w_1 w_2 1 w)))
 (let ((?x9551 (storage_t x_SLOAD_0 w_1 w_2 2 w)))
 (= ?x9551 ?x8621))))
 ))
 (let (($x4196 (forall ((n (_ BitVec 6)) )(let ((?x8676 (stack_t x_SLOAD_0 w_1 w_2 1 n)))
 (let ((?x6896 (stack_t x_SLOAD_0 w_1 w_2 2 n)))
 (or (= ?x6896 ?x8676) (bvsle (bvadd (_ bv63 6) (sc_t 1)) n)))))
 ))
 (let ((?x1473 (sc_t 1)))
 (let (($x2880 (= ?x4896 ?x1473)))
 (let (($x9700 (= (used_gas_t x_SLOAD_0 w_1 w_2 2) (+ 200 (used_gas_t x_SLOAD_0 w_1 w_2 1)))))
 (let ((?x10897 (storage_t x_SLOAD_0 w_1 w_2 1 (stack_t x_SLOAD_0 w_1 w_2 1 (bvadd (_ bv63 6) ?x1473)))))
 (let (($x7526 (exc_halt_t 1)))
 (let (($x1231 (= $x7526 (or $x56 (not (= ((_ extract 6 6) (bvadd (_ bv1 7) (concat (_ bv0 1) ?x63))) (_ bv0 1)))))))
 (let (($x8919 (forall ((w (_ BitVec 256)) )(let ((?x256 (storage_t x_SLOAD_0 w_1 w_2 0 w)))
 (let ((?x8621 (storage_t x_SLOAD_0 w_1 w_2 1 w)))
 (= ?x8621 ?x256))))
 ))
 (let (($x4977 (forall ((n (_ BitVec 6)) )(let ((?x63 (sc_t 0)))
 (let (($x6655 (bvsle ?x63 n)))
 (let ((?x9634 (stack_t x_SLOAD_0 w_1 w_2 0 n)))
 (let ((?x8676 (stack_t x_SLOAD_0 w_1 w_2 1 n)))
 (or (= ?x8676 ?x9634) $x6655))))))
 ))
 (let (($x5345 (= ?x1473 (bvadd (_ bv1 6) ?x63))))
 (let (($x10595 (= $x1862 (or (exc_halt_s 4) (not (bvsle (_ bv0 6) (bvadd (_ bv63 6) (sc_s 4))))))))
 (let (($x1249 (forall ((w (_ BitVec 256)) )(let ((?x5303 (storage_s x_SLOAD_0 w_1 w_2 4 w)))
 (let ((?x8115 (storage_s x_SLOAD_0 w_1 w_2 5 w)))
 (= ?x8115 ?x5303))))
 ))
 (let (($x5955 (forall ((n (_ BitVec 6)) )(let ((?x2327 (stack_s x_SLOAD_0 w_1 w_2 4 n)))
 (let ((?x571 (stack_s x_SLOAD_0 w_1 w_2 5 n)))
 (or (= ?x571 ?x2327) (bvsle (bvadd (_ bv63 6) (sc_s 4)) n)))))
 ))
 (let (($x2242 (= (used_gas_s x_SLOAD_0 w_1 w_2 5) (+ 2 (used_gas_s x_SLOAD_0 w_1 w_2 4)))))
 (let (($x9175 (exc_halt_s 4)))
 (let (($x4020 (= $x9175 (or (exc_halt_s 3) (not (bvsle (_ bv0 6) (bvadd (_ bv62 6) (sc_s 3))))))))
 (let (($x4806 (forall ((w (_ BitVec 256)) )(let ((?x6603 (storage_s x_SLOAD_0 w_1 w_2 3 w)))
 (let ((?x5303 (storage_s x_SLOAD_0 w_1 w_2 4 w)))
 (= ?x5303 ?x6603))))
 ))
 (let (($x9972 (forall ((n (_ BitVec 6)) )(let ((?x7330 (stack_s x_SLOAD_0 w_1 w_2 3 n)))
 (let ((?x2327 (stack_s x_SLOAD_0 w_1 w_2 4 n)))
 (or (= ?x2327 ?x7330) (bvsle (bvadd (_ bv62 6) (sc_s 3)) n)))))
 ))
 (let ((?x3851 (sc_s 3)))
 (let ((?x9433 (sc_s 4)))
 (let (($x5601 (= ?x9433 ?x3851)))
 (let ((?x5667 (used_gas_s x_SLOAD_0 w_1 w_2 4)))
 (let ((?x5352 (bvadd (_ bv63 6) ?x3851)))
 (let ((?x7602 (stack_s x_SLOAD_0 w_1 w_2 3 ?x5352)))
 (let (($x9362 (= (stack_s x_SLOAD_0 w_1 w_2 4 (bvadd (_ bv63 6) ?x9433)) (stack_s x_SLOAD_0 w_1 w_2 3 (bvadd (_ bv62 6) ?x3851)))))
 (let (($x8103 (exc_halt_s 3)))
 (let (($x3550 (= $x8103 (or (exc_halt_s 2) (not (bvsle (_ bv0 6) (bvadd (_ bv63 6) (sc_s 2))))))))
 (let (($x5281 (forall ((w (_ BitVec 256)) )(let ((?x9231 (storage_s x_SLOAD_0 w_1 w_2 2 w)))
 (let ((?x6603 (storage_s x_SLOAD_0 w_1 w_2 3 w)))
 (= ?x6603 ?x9231))))
 ))
 (let (($x7079 (forall ((n (_ BitVec 6)) )(let ((?x10597 (stack_s x_SLOAD_0 w_1 w_2 2 n)))
 (let ((?x7330 (stack_s x_SLOAD_0 w_1 w_2 3 n)))
 (or (= ?x7330 ?x10597) (bvsle (bvadd (_ bv63 6) (sc_s 2)) n)))))
 ))
 (let ((?x2272 (sc_s 2)))
 (let (($x197 (= ?x3851 ?x2272)))
 (let ((?x9889 (used_gas_s x_SLOAD_0 w_1 w_2 3)))
 (let ((?x6508 (storage_s x_SLOAD_0 w_1 w_2 2 (stack_s x_SLOAD_0 w_1 w_2 2 (bvadd (_ bv63 6) ?x2272)))))
 (let (($x11866 (not (= ((_ extract 6 6) (bvadd (_ bv1 7) (concat (_ bv0 1) (sc_s 1)))) (_ bv0 1)))))
 (let (($x8780 (exc_halt_s 1)))
 (let (($x10052 (exc_halt_s 2)))
 (let (($x7142 (forall ((w (_ BitVec 256)) )(let ((?x2973 (storage_s x_SLOAD_0 w_1 w_2 1 w)))
 (let ((?x9231 (storage_s x_SLOAD_0 w_1 w_2 2 w)))
 (= ?x9231 ?x2973))))
 ))
 (let (($x10563 (forall ((n (_ BitVec 6)) )(let ((?x2387 (stack_s x_SLOAD_0 w_1 w_2 1 n)))
 (let ((?x10597 (stack_s x_SLOAD_0 w_1 w_2 2 n)))
 (or (= ?x10597 ?x2387) (bvsle (sc_s 1) n)))))
 ))
 (let (($x11836 (= ?x2272 (bvadd (_ bv1 6) (sc_s 1)))))
 (let ((?x7609 (used_gas_s x_SLOAD_0 w_1 w_2 2)))
 (let (($x1020 (= $x8780 (or $x57 (not (= ((_ extract 6 6) (bvadd (_ bv1 7) (concat (_ bv0 1) ?x72))) (_ bv0 1)))))))
 (let (($x4670 (forall ((w (_ BitVec 256)) )(let ((?x47 (storage_s x_SLOAD_0 w_1 w_2 0 w)))
 (let ((?x2973 (storage_s x_SLOAD_0 w_1 w_2 1 w)))
 (= ?x2973 ?x47))))
 ))
 (let (($x7186 (forall ((n (_ BitVec 6)) )(let ((?x8532 (stack_s x_SLOAD_0 w_1 w_2 0 n)))
 (let ((?x2387 (stack_s x_SLOAD_0 w_1 w_2 1 n)))
 (or (bvsle (sc_s 0) n) (= ?x2387 ?x8532)))))
 ))
 (let ((?x154 (sc_s 1)))
 (let (($x3134 (= ?x154 (bvadd (_ bv1 6) ?x72))))
 (let (($x9086 (forall ((w (_ BitVec 256)) )(let ((?x6605 (ite (= w (stack_s x_SLOAD_0 w_1 w_2 2 (bvadd (_ bv63 6) (sc_s 2)))) x_SLOAD_0 (_ bv0 256))))
 (let ((?x47 (storage_s x_SLOAD_0 w_1 w_2 0 w)))
 (= ?x47 ?x6605))))
 ))
 (let (($x4575 (= ?x2875 0)))
 (let (($x7433 (not $x57)))
 (let (($x4972 (= ?x72 (_ bv0 6))))
 (and $x4972 $x7433 $x4575 $x9086 (= (stack_s x_SLOAD_0 w_1 w_2 1 ?x72) w_1) (= (used_gas_s x_SLOAD_0 w_1 w_2 1) (+ 3 ?x2875)) $x3134 $x7186 $x4670 $x1020 (= (stack_s x_SLOAD_0 w_1 w_2 2 ?x154) w_2) (= ?x7609 (+ 3 (used_gas_s x_SLOAD_0 w_1 w_2 1))) $x11836 $x10563 $x7142 (= $x10052 (or $x8780 $x11866)) (= ?x7602 ?x6508) (= ?x9889 (+ 200 ?x7609)) $x197 $x7079 $x5281 $x3550 $x9362 (= (stack_s x_SLOAD_0 w_1 w_2 4 (bvadd (_ bv62 6) ?x9433)) ?x7602) (= ?x5667 (+ 3 ?x9889)) $x5601 $x9972 $x4806 $x4020 $x2242 (= ?x4319 (bvadd (_ bv63 6) ?x9433)) $x5955 $x1249 $x10595 (= (stack_t x_SLOAD_0 w_1 w_2 1 ?x63) w_2) (= (used_gas_t x_SLOAD_0 w_1 w_2 1) (+ 3 ?x9289)) $x5345 $x4977 $x8919 $x1231 (= (stack_t x_SLOAD_0 w_1 w_2 2 (bvadd (_ bv63 6) ?x4896)) ?x10897) $x9700 $x2880 $x4196 $x11025 $x11340 $x73 $x4150 $x58 $x1528 $x484 (not (and $x4807 $x6676 $x6841 $x8058))))))))))))))))))))))))))))))))))))))))))))))))))))))))))))))))))))))))))
 )
(check-sat)
(get-proof)
